1198.97,47.23,56.6
1040.56,54.42,65.22
1221.37,46.36,55.57
1156.61,48.96,58.68
1143.42,49.52,59.35
1035.4,54.69,65.54
1069.01,52.97,63.48
1204.02,47.03,56.37
1083.14,52.28,62.66
1095.39,51.69,61.96
1132.69,49.99,59.92
1304.18,43.42,52.04
1142.78,49.55,59.39
1021.31,55.44,66.45
1043.29,54.28,65.05
1134.96,49.89,59.8
1086.03,52.14,62.49
1029.6,55.0,65.91
1146.29,49.4,59.2
1121.49,50.49,60.51
